33D32945 STP File, STP Format Version 1.0

SECTION Comments
Name "shell_n10_d4_s15"
Problem "Euclidean Steiner Tree Problem"
Remark "Generated with STPGenerator. 4 dimensions."
END

SECTION Graph
Nodes 10
END

SECTION Coordinates
DDDD 0 -0.4562742831 0.5447506287 0.0483164994 -0.7019444757
DDDD 1 0.5809250508 0.1824810638 0.2479605468 -0.7534867709
DDDD 2 -0.0662892661 0.4167078496 -0.3398622139 -0.8405081658
DDDD 3 0.4746571687 -0.3542331180 0.7841576396 0.1852465020
DDDD 4 -0.7042838847 -0.3310249197 0.0426494918 -0.6265682190
DDDD 5 0.1792733274 0.3583823956 0.7791040970 0.4820995112
DDDD 6 0.4230603752 0.6924851974 0.0569181095 0.5815879117
DDDD 7 -0.2863340491 -0.4339600428 0.5067582163 0.6876682368
DDDD 8 -0.7839056866 0.2866738947 -0.1874091126 -0.5178684940
DDDD 9 0.4006964790 0.1350140555 0.5223097334 -0.7405444477
END
